30 4
99 32 16 77 60 11 34 77 96 11 11 86 28 62 64 86 79 54 73 96 74 51 95 61 25 49 51 87 37 62
21 70 38 80 64 25 75 86 54 78 100 83 79 40 58 31 80 26 76 95 10 98 23 61 81 70 53 51 35 85
63 57 25 94 50 29 37 40 10 33 97 73 40 99 11 10 32 82 76 58 31 100 94 97 98 71 36 61 82 67
16 21 28 65 22 73 40 36 36 66 93 23 86 40 32 41 58 82 14 20 10 81 32 69 17 20 64 48 58 39
